NAME : A-n69-k9.757756.tour
COMMENT : Length = 757756
COMMENT : Found by LKH [Keld Helsgaun] Sun Dec 17 18:49:22 2017
TYPE : TOUR
DIMENSION : 77
TOUR_SECTION
1
63
57
40
9
60
21
42
71
20
59
23
13
67
24
74
25
53
38
33
18
11
77
29
58
43
15
26
12
64
76
32
19
54
10
31
52
7
4
16
45
75
35
28
66
56
61
5
48
73
27
55
47
6
51
17
49
2
37
70
8
68
22
62
65
3
34
50
72
44
30
41
39
69
14
36
46
-1
EOF
